NAME : tsp25_21.164.tour
COMMENT : Length = 164
COMMENT : Found by LKH [Keld Helsgaun]
TYPE : TOUR
DIMENSION : 25
TOUR_SECTION
1
6
19
11
12
14
21
13
16
5
7
22
20
8
25
3
24
2
9
4
15
17
23
10
18
-1
EOF
